NAME : mtspf.pid4625.gtsp.133817847.tour
COMMENT : Length = 133817847
COMMENT : Found by LKH [Keld Helsgaun] Wed Jan 15 10:36:18 2025
TYPE : TOUR
DIMENSION : 85
TOUR_SECTION
1
57
54
55
56
60
61
58
59
17
14
15
16
85
82
83
84
2
65
62
63
64
76
77
74
75
41
38
39
40
18
19
20
21
69
66
67
68
30
31
32
33
36
37
34
35
79
80
81
78
5
26
27
28
29
23
24
25
22
4
11
12
13
10
70
71
72
73
43
44
45
42
48
49
46
47
3
6
7
8
9
53
50
51
52
-1
EOF
